NAME : higgs-002-integer.pruned_local_4.-39298925.tour
COMMENT : Length = -39298925
TYPE : TOUR
DIMENSION : 28
TOUR_SECTION
27
25
23
20
18
16
14
10
6
4
1
3
5
8
12
15
17
7
9
2
13
11
21
19
22
24
26
28
-1
EOF
